//First Small Instance: 
Params = <20,8,15,9,1>;
Workers = { 
<1,3>,
<2,5>,
<3,4>,
<4,2>,
<5,3>,
<6,2>,
<7,1>,
<8,6>,
<9,7>
};
Ops = { 
<1,1,1>,
<2,1,2>,
<3,1,3>,
<4,1,4>,
<5,1,5>,
<6,1,6>,
<7,1,7>,
<8,1,8>,
<9,1,9>,
<11,1,10>,
<13,1,11>,
<14,1,12>,
<15,1,13>,
<16,1,14>,
<17,2,1>,
<18,2,2>,
<19,2,3>,
<20,2,4>,
<21,2,5>,
<22,2,6>,
<23,2,7>,
<24,2,8>,
<25,2,9>,
<27,2,10>,
<28,2,11>,
<29,2,12>,
<32,2,13>,
<33,3,1>,
<34,3,2>,
<35,3,3>,
<36,3,4>,
<37,3,5>,
<38,3,6>,
<39,3,7>,
<40,3,8>,
<41,3,9>,
<42,3,10>,
<43,3,11>,
<47,3,12>,
<48,3,13>,
<49,4,1>,
<50,4,2>,
<51,4,3>,
<52,4,4>,
<53,4,5>,
<54,4,6>,
<55,4,7>,
<56,4,8>,
<57,4,9>,
<58,4,10>,
<60,4,11>,
<62,4,12>,
<65,5,1>,
<66,5,2>,
<67,5,3>,
<68,5,4>,
<69,5,5>,
<70,5,6>,
<71,5,7>,
<72,5,8>,
<73,5,9>,
<74,5,10>,
<75,5,11>,
<76,5,12>,
<77,5,13>,
<78,5,14>,
<81,6,1>,
<82,6,2>,
<83,6,3>,
<84,6,4>,
<85,6,5>,
<86,6,6>,
<87,6,7>,
<88,6,8>,
<89,6,9>,
<90,6,10>,
<93,6,11>,
<95,6,12>,
<97,7,1>,
<98,7,2>,
<99,7,3>,
<100,7,4>,
<101,7,5>,
<102,7,6>,
<103,7,7>,
<104,7,8>,
<105,7,9>,
<112,7,10>,
<113,8,1>,
<114,8,2>,
<115,8,3>,
<116,8,4>,
<117,8,5>,
<118,8,6>,
<119,8,7>,
<120,8,8>,
<121,8,9>,
<122,8,10>,
<123,8,11>,
<124,8,12>,
<126,8,13>,
<128,8,14>,
<129,9,1>,
<130,9,2>,
<131,9,3>,
<132,9,4>,
<133,9,5>,
<134,9,6>,
<135,9,7>,
<136,9,8>,
<137,9,9>,
<138,9,10>,
<140,9,11>,
<142,9,12>,
<144,9,13>,
<145,10,1>,
<146,10,2>,
<147,10,3>,
<148,10,4>,
<149,10,5>,
<150,10,6>,
<151,10,7>,
<152,10,8>,
<153,10,9>,
<154,10,10>,
<155,10,11>,
<156,10,12>,
<158,10,13>,
<159,10,14>,
<160,10,15>,
<161,11,1>,
<162,11,2>,
<163,11,3>,
<164,11,4>,
<165,11,5>,
<166,11,6>,
<167,11,7>,
<168,11,8>,
<169,11,9>,
<174,11,10>,
<176,11,11>,
<177,12,1>,
<178,12,2>,
<179,12,3>,
<180,12,4>,
<181,12,5>,
<182,12,6>,
<183,12,7>,
<184,12,8>,
<185,12,9>,
<186,12,10>,
<187,12,11>,
<188,12,12>,
<190,12,13>,
<191,12,14>,
<193,13,1>,
<194,13,2>,
<195,13,3>,
<196,13,4>,
<197,13,5>,
<198,13,6>,
<199,13,7>,
<200,13,8>,
<201,13,9>,
<202,13,10>,
<203,13,11>,
<206,13,12>,
<207,13,13>,
<208,13,14>,
<209,14,1>,
<210,14,2>,
<211,14,3>,
<212,14,4>,
<213,14,5>,
<214,14,6>,
<215,14,7>,
<216,14,8>,
<217,14,9>,
<219,14,10>,
<224,14,11>,
<225,15,1>,
<226,15,2>,
<227,15,3>,
<228,15,4>,
<229,15,5>,
<230,15,6>,
<231,15,7>,
<232,15,8>,
<233,15,9>,
<238,15,10>,
<239,15,11>,
<240,15,12>,
<241,16,1>,
<242,16,2>,
<243,16,3>,
<244,16,4>,
<245,16,5>,
<246,16,6>,
<247,16,7>,
<248,16,8>,
<249,16,9>,
<250,16,10>,
<251,16,11>,
<253,16,12>,
<254,16,13>,
<255,16,14>,
<256,16,15>,
<257,17,1>,
<258,17,2>,
<259,17,3>,
<260,17,4>,
<261,17,5>,
<262,17,6>,
<263,17,7>,
<264,17,8>,
<265,17,9>,
<266,17,10>,
<272,17,11>,
<273,18,1>,
<274,18,2>,
<275,18,3>,
<276,18,4>,
<277,18,5>,
<278,18,6>,
<279,18,7>,
<280,18,8>,
<281,18,9>,
<283,18,10>,
<284,18,11>,
<285,18,12>,
<286,18,13>,
<287,18,14>,
<288,18,15>,
<289,19,1>,
<290,19,2>,
<291,19,3>,
<292,19,4>,
<293,19,5>,
<294,19,6>,
<295,19,7>,
<296,19,8>,
<297,19,9>,
<298,19,10>,
<300,19,11>,
<303,19,12>,
<305,20,1>,
<306,20,2>,
<307,20,3>,
<308,20,4>,
<309,20,5>,
<310,20,6>,
<311,20,7>,
<312,20,8>,
<313,20,9>,
<315,20,10>,
<317,20,11>,
<319,20,12>,
<320,20,13>
 };
Modes = { 
<1,1,6,1>,
<1,1,6,2>,
<1,1,6,3>,
<1,1,6,4>,
<1,1,6,5>,
<1,1,6,6>,
<1,1,6,7>,
<1,1,6,8>,
<1,2,6,1>,
<1,2,6,2>,
<1,2,6,3>,
<1,2,6,4>,
<1,2,6,5>,
<1,2,6,6>,
<1,2,6,7>,
<1,2,6,8>,
<2,3,2,2>,
<2,3,2,3>,
<2,3,2,4>,
<2,3,2,5>,
<2,3,2,8>,
<2,3,2,9>,
<2,4,2,2>,
<2,4,2,3>,
<2,4,2,4>,
<2,4,2,5>,
<2,4,2,8>,
<2,4,2,9>,
<3,5,7,1>,
<3,5,7,2>,
<3,5,7,3>,
<3,5,7,9>,
<3,6,7,1>,
<3,6,7,2>,
<3,6,7,3>,
<3,6,7,9>,
<4,7,5,8>,
<4,7,5,9>,
<4,8,5,8>,
<4,8,5,9>,
<5,9,10,1>,
<5,9,10,2>,
<5,9,10,6>,
<5,9,10,8>,
<5,9,10,9>,
<5,10,10,1>,
<5,10,10,2>,
<5,10,10,6>,
<5,10,10,8>,
<5,10,10,9>,
<6,11,4,2>,
<6,11,4,3>,
<6,11,4,4>,
<6,11,4,5>,
<6,11,4,8>,
<6,11,4,9>,
<6,12,4,2>,
<6,12,4,3>,
<6,12,4,4>,
<6,12,4,5>,
<6,12,4,8>,
<6,12,4,9>,
<7,13,5,1>,
<7,13,5,5>,
<7,13,5,6>,
<7,13,5,7>,
<7,13,5,8>,
<7,13,5,9>,
<7,14,5,1>,
<7,14,5,5>,
<7,14,5,6>,
<7,14,5,7>,
<7,14,5,8>,
<7,14,5,9>,
<8,15,9,2>,
<8,15,9,3>,
<8,15,9,8>,
<8,15,9,9>,
<9,1,5,1>,
<9,1,5,2>,
<9,1,5,3>,
<9,1,5,4>,
<9,1,5,5>,
<9,1,5,6>,
<9,1,5,7>,
<9,1,5,8>,
<9,2,5,1>,
<9,2,5,2>,
<9,2,5,3>,
<9,2,5,4>,
<9,2,5,5>,
<9,2,5,6>,
<9,2,5,7>,
<9,2,5,8>,
<11,5,8,1>,
<11,5,8,2>,
<11,5,8,3>,
<11,5,8,9>,
<11,6,8,1>,
<11,6,8,2>,
<11,6,8,3>,
<11,6,8,9>,
<13,9,7,1>,
<13,9,7,2>,
<13,9,7,6>,
<13,9,7,8>,
<13,9,7,9>,
<13,10,7,1>,
<13,10,7,2>,
<13,10,7,6>,
<13,10,7,8>,
<13,10,7,9>,
<14,11,7,2>,
<14,11,7,3>,
<14,11,7,4>,
<14,11,7,5>,
<14,11,7,8>,
<14,11,7,9>,
<14,12,7,2>,
<14,12,7,3>,
<14,12,7,4>,
<14,12,7,5>,
<14,12,7,8>,
<14,12,7,9>,
<15,13,10,1>,
<15,13,10,5>,
<15,13,10,6>,
<15,13,10,7>,
<15,13,10,8>,
<15,13,10,9>,
<15,14,10,1>,
<15,14,10,5>,
<15,14,10,6>,
<15,14,10,7>,
<15,14,10,8>,
<15,14,10,9>,
<16,15,1,2>,
<16,15,1,3>,
<16,15,1,8>,
<16,15,1,9>,
<17,1,7,1>,
<17,1,7,2>,
<17,1,7,3>,
<17,1,7,4>,
<17,1,7,5>,
<17,1,7,6>,
<17,1,7,7>,
<17,1,7,8>,
<17,2,7,1>,
<17,2,7,2>,
<17,2,7,3>,
<17,2,7,4>,
<17,2,7,5>,
<17,2,7,6>,
<17,2,7,7>,
<17,2,7,8>,
<18,3,3,2>,
<18,3,3,3>,
<18,3,3,4>,
<18,3,3,5>,
<18,3,3,8>,
<18,3,3,9>,
<18,4,3,2>,
<18,4,3,3>,
<18,4,3,4>,
<18,4,3,5>,
<18,4,3,8>,
<18,4,3,9>,
<19,5,10,1>,
<19,5,10,2>,
<19,5,10,3>,
<19,5,10,9>,
<19,6,10,1>,
<19,6,10,2>,
<19,6,10,3>,
<19,6,10,9>,
<20,7,9,8>,
<20,7,9,9>,
<20,8,9,8>,
<20,8,9,9>,
<21,9,9,1>,
<21,9,9,2>,
<21,9,9,6>,
<21,9,9,8>,
<21,9,9,9>,
<21,10,9,1>,
<21,10,9,2>,
<21,10,9,6>,
<21,10,9,8>,
<21,10,9,9>,
<22,11,1,2>,
<22,11,1,3>,
<22,11,1,4>,
<22,11,1,5>,
<22,11,1,8>,
<22,11,1,9>,
<22,12,1,2>,
<22,12,1,3>,
<22,12,1,4>,
<22,12,1,5>,
<22,12,1,8>,
<22,12,1,9>,
<23,13,5,1>,
<23,13,5,5>,
<23,13,5,6>,
<23,13,5,7>,
<23,13,5,8>,
<23,13,5,9>,
<23,14,5,1>,
<23,14,5,5>,
<23,14,5,6>,
<23,14,5,7>,
<23,14,5,8>,
<23,14,5,9>,
<24,15,3,2>,
<24,15,3,3>,
<24,15,3,8>,
<24,15,3,9>,
<25,1,5,1>,
<25,1,5,2>,
<25,1,5,3>,
<25,1,5,4>,
<25,1,5,5>,
<25,1,5,6>,
<25,1,5,7>,
<25,1,5,8>,
<25,2,5,1>,
<25,2,5,2>,
<25,2,5,3>,
<25,2,5,4>,
<25,2,5,5>,
<25,2,5,6>,
<25,2,5,7>,
<25,2,5,8>,
<27,5,3,1>,
<27,5,3,2>,
<27,5,3,3>,
<27,5,3,9>,
<27,6,3,1>,
<27,6,3,2>,
<27,6,3,3>,
<27,6,3,9>,
<28,7,7,8>,
<28,7,7,9>,
<28,8,7,8>,
<28,8,7,9>,
<29,9,8,1>,
<29,9,8,2>,
<29,9,8,6>,
<29,9,8,8>,
<29,9,8,9>,
<29,10,8,1>,
<29,10,8,2>,
<29,10,8,6>,
<29,10,8,8>,
<29,10,8,9>,
<32,15,7,2>,
<32,15,7,3>,
<32,15,7,8>,
<32,15,7,9>,
<33,1,3,1>,
<33,1,3,2>,
<33,1,3,3>,
<33,1,3,4>,
<33,1,3,5>,
<33,1,3,6>,
<33,1,3,7>,
<33,1,3,8>,
<33,2,3,1>,
<33,2,3,2>,
<33,2,3,3>,
<33,2,3,4>,
<33,2,3,5>,
<33,2,3,6>,
<33,2,3,7>,
<33,2,3,8>,
<34,3,1,2>,
<34,3,1,3>,
<34,3,1,4>,
<34,3,1,5>,
<34,3,1,8>,
<34,3,1,9>,
<34,4,1,2>,
<34,4,1,3>,
<34,4,1,4>,
<34,4,1,5>,
<34,4,1,8>,
<34,4,1,9>,
<35,5,7,1>,
<35,5,7,2>,
<35,5,7,3>,
<35,5,7,9>,
<35,6,7,1>,
<35,6,7,2>,
<35,6,7,3>,
<35,6,7,9>,
<36,7,3,8>,
<36,7,3,9>,
<36,8,3,8>,
<36,8,3,9>,
<37,9,10,1>,
<37,9,10,2>,
<37,9,10,6>,
<37,9,10,8>,
<37,9,10,9>,
<37,10,10,1>,
<37,10,10,2>,
<37,10,10,6>,
<37,10,10,8>,
<37,10,10,9>,
<38,11,7,2>,
<38,11,7,3>,
<38,11,7,4>,
<38,11,7,5>,
<38,11,7,8>,
<38,11,7,9>,
<38,12,7,2>,
<38,12,7,3>,
<38,12,7,4>,
<38,12,7,5>,
<38,12,7,8>,
<38,12,7,9>,
<39,13,8,1>,
<39,13,8,5>,
<39,13,8,6>,
<39,13,8,7>,
<39,13,8,8>,
<39,13,8,9>,
<39,14,8,1>,
<39,14,8,5>,
<39,14,8,6>,
<39,14,8,7>,
<39,14,8,8>,
<39,14,8,9>,
<40,15,10,2>,
<40,15,10,3>,
<40,15,10,8>,
<40,15,10,9>,
<41,1,2,1>,
<41,1,2,2>,
<41,1,2,3>,
<41,1,2,4>,
<41,1,2,5>,
<41,1,2,6>,
<41,1,2,7>,
<41,1,2,8>,
<41,2,2,1>,
<41,2,2,2>,
<41,2,2,3>,
<41,2,2,4>,
<41,2,2,5>,
<41,2,2,6>,
<41,2,2,7>,
<41,2,2,8>,
<42,3,2,2>,
<42,3,2,3>,
<42,3,2,4>,
<42,3,2,5>,
<42,3,2,8>,
<42,3,2,9>,
<42,4,2,2>,
<42,4,2,3>,
<42,4,2,4>,
<42,4,2,5>,
<42,4,2,8>,
<42,4,2,9>,
<43,5,6,1>,
<43,5,6,2>,
<43,5,6,3>,
<43,5,6,9>,
<43,6,6,1>,
<43,6,6,2>,
<43,6,6,3>,
<43,6,6,9>,
<47,13,9,1>,
<47,13,9,5>,
<47,13,9,6>,
<47,13,9,7>,
<47,13,9,8>,
<47,13,9,9>,
<47,14,9,1>,
<47,14,9,5>,
<47,14,9,6>,
<47,14,9,7>,
<47,14,9,8>,
<47,14,9,9>,
<48,15,2,2>,
<48,15,2,3>,
<48,15,2,8>,
<48,15,2,9>,
<49,1,9,1>,
<49,1,9,2>,
<49,1,9,3>,
<49,1,9,4>,
<49,1,9,5>,
<49,1,9,6>,
<49,1,9,7>,
<49,1,9,8>,
<49,2,9,1>,
<49,2,9,2>,
<49,2,9,3>,
<49,2,9,4>,
<49,2,9,5>,
<49,2,9,6>,
<49,2,9,7>,
<49,2,9,8>,
<50,3,3,2>,
<50,3,3,3>,
<50,3,3,4>,
<50,3,3,5>,
<50,3,3,8>,
<50,3,3,9>,
<50,4,3,2>,
<50,4,3,3>,
<50,4,3,4>,
<50,4,3,5>,
<50,4,3,8>,
<50,4,3,9>,
<51,5,8,1>,
<51,5,8,2>,
<51,5,8,3>,
<51,5,8,9>,
<51,6,8,1>,
<51,6,8,2>,
<51,6,8,3>,
<51,6,8,9>,
<52,7,7,8>,
<52,7,7,9>,
<52,8,7,8>,
<52,8,7,9>,
<53,9,3,1>,
<53,9,3,2>,
<53,9,3,6>,
<53,9,3,8>,
<53,9,3,9>,
<53,10,3,1>,
<53,10,3,2>,
<53,10,3,6>,
<53,10,3,8>,
<53,10,3,9>,
<54,11,4,2>,
<54,11,4,3>,
<54,11,4,4>,
<54,11,4,5>,
<54,11,4,8>,
<54,11,4,9>,
<54,12,4,2>,
<54,12,4,3>,
<54,12,4,4>,
<54,12,4,5>,
<54,12,4,8>,
<54,12,4,9>,
<55,13,10,1>,
<55,13,10,5>,
<55,13,10,6>,
<55,13,10,7>,
<55,13,10,8>,
<55,13,10,9>,
<55,14,10,1>,
<55,14,10,5>,
<55,14,10,6>,
<55,14,10,7>,
<55,14,10,8>,
<55,14,10,9>,
<56,15,10,2>,
<56,15,10,3>,
<56,15,10,8>,
<56,15,10,9>,
<57,1,6,1>,
<57,1,6,2>,
<57,1,6,3>,
<57,1,6,4>,
<57,1,6,5>,
<57,1,6,6>,
<57,1,6,7>,
<57,1,6,8>,
<57,2,6,1>,
<57,2,6,2>,
<57,2,6,3>,
<57,2,6,4>,
<57,2,6,5>,
<57,2,6,6>,
<57,2,6,7>,
<57,2,6,8>,
<58,3,3,2>,
<58,3,3,3>,
<58,3,3,4>,
<58,3,3,5>,
<58,3,3,8>,
<58,3,3,9>,
<58,4,3,2>,
<58,4,3,3>,
<58,4,3,4>,
<58,4,3,5>,
<58,4,3,8>,
<58,4,3,9>,
<60,7,8,8>,
<60,7,8,9>,
<60,8,8,8>,
<60,8,8,9>,
<62,11,9,2>,
<62,11,9,3>,
<62,11,9,4>,
<62,11,9,5>,
<62,11,9,8>,
<62,11,9,9>,
<62,12,9,2>,
<62,12,9,3>,
<62,12,9,4>,
<62,12,9,5>,
<62,12,9,8>,
<62,12,9,9>,
<65,1,6,1>,
<65,1,6,2>,
<65,1,6,3>,
<65,1,6,4>,
<65,1,6,5>,
<65,1,6,6>,
<65,1,6,7>,
<65,1,6,8>,
<65,2,6,1>,
<65,2,6,2>,
<65,2,6,3>,
<65,2,6,4>,
<65,2,6,5>,
<65,2,6,6>,
<65,2,6,7>,
<65,2,6,8>,
<66,3,8,2>,
<66,3,8,3>,
<66,3,8,4>,
<66,3,8,5>,
<66,3,8,8>,
<66,3,8,9>,
<66,4,8,2>,
<66,4,8,3>,
<66,4,8,4>,
<66,4,8,5>,
<66,4,8,8>,
<66,4,8,9>,
<67,5,3,1>,
<67,5,3,2>,
<67,5,3,3>,
<67,5,3,9>,
<67,6,3,1>,
<67,6,3,2>,
<67,6,3,3>,
<67,6,3,9>,
<68,7,8,8>,
<68,7,8,9>,
<68,8,8,8>,
<68,8,8,9>,
<69,9,10,1>,
<69,9,10,2>,
<69,9,10,6>,
<69,9,10,8>,
<69,9,10,9>,
<69,10,10,1>,
<69,10,10,2>,
<69,10,10,6>,
<69,10,10,8>,
<69,10,10,9>,
<70,11,2,2>,
<70,11,2,3>,
<70,11,2,4>,
<70,11,2,5>,
<70,11,2,8>,
<70,11,2,9>,
<70,12,2,2>,
<70,12,2,3>,
<70,12,2,4>,
<70,12,2,5>,
<70,12,2,8>,
<70,12,2,9>,
<71,13,3,1>,
<71,13,3,5>,
<71,13,3,6>,
<71,13,3,7>,
<71,13,3,8>,
<71,13,3,9>,
<71,14,3,1>,
<71,14,3,5>,
<71,14,3,6>,
<71,14,3,7>,
<71,14,3,8>,
<71,14,3,9>,
<72,15,1,2>,
<72,15,1,3>,
<72,15,1,8>,
<72,15,1,9>,
<73,1,7,1>,
<73,1,7,2>,
<73,1,7,3>,
<73,1,7,4>,
<73,1,7,5>,
<73,1,7,6>,
<73,1,7,7>,
<73,1,7,8>,
<73,2,7,1>,
<73,2,7,2>,
<73,2,7,3>,
<73,2,7,4>,
<73,2,7,5>,
<73,2,7,6>,
<73,2,7,7>,
<73,2,7,8>,
<74,3,7,2>,
<74,3,7,3>,
<74,3,7,4>,
<74,3,7,5>,
<74,3,7,8>,
<74,3,7,9>,
<74,4,7,2>,
<74,4,7,3>,
<74,4,7,4>,
<74,4,7,5>,
<74,4,7,8>,
<74,4,7,9>,
<75,5,2,1>,
<75,5,2,2>,
<75,5,2,3>,
<75,5,2,9>,
<75,6,2,1>,
<75,6,2,2>,
<75,6,2,3>,
<75,6,2,9>,
<76,7,3,8>,
<76,7,3,9>,
<76,8,3,8>,
<76,8,3,9>,
<77,9,1,1>,
<77,9,1,2>,
<77,9,1,6>,
<77,9,1,8>,
<77,9,1,9>,
<77,10,1,1>,
<77,10,1,2>,
<77,10,1,6>,
<77,10,1,8>,
<77,10,1,9>,
<78,11,6,2>,
<78,11,6,3>,
<78,11,6,4>,
<78,11,6,5>,
<78,11,6,8>,
<78,11,6,9>,
<78,12,6,2>,
<78,12,6,3>,
<78,12,6,4>,
<78,12,6,5>,
<78,12,6,8>,
<78,12,6,9>,
<81,1,10,1>,
<81,1,10,2>,
<81,1,10,3>,
<81,1,10,4>,
<81,1,10,5>,
<81,1,10,6>,
<81,1,10,7>,
<81,1,10,8>,
<81,2,10,1>,
<81,2,10,2>,
<81,2,10,3>,
<81,2,10,4>,
<81,2,10,5>,
<81,2,10,6>,
<81,2,10,7>,
<81,2,10,8>,
<82,3,9,2>,
<82,3,9,3>,
<82,3,9,4>,
<82,3,9,5>,
<82,3,9,8>,
<82,3,9,9>,
<82,4,9,2>,
<82,4,9,3>,
<82,4,9,4>,
<82,4,9,5>,
<82,4,9,8>,
<82,4,9,9>,
<83,5,8,1>,
<83,5,8,2>,
<83,5,8,3>,
<83,5,8,9>,
<83,6,8,1>,
<83,6,8,2>,
<83,6,8,3>,
<83,6,8,9>,
<84,7,9,8>,
<84,7,9,9>,
<84,8,9,8>,
<84,8,9,9>,
<85,9,3,1>,
<85,9,3,2>,
<85,9,3,6>,
<85,9,3,8>,
<85,9,3,9>,
<85,10,3,1>,
<85,10,3,2>,
<85,10,3,6>,
<85,10,3,8>,
<85,10,3,9>,
<86,11,7,2>,
<86,11,7,3>,
<86,11,7,4>,
<86,11,7,5>,
<86,11,7,8>,
<86,11,7,9>,
<86,12,7,2>,
<86,12,7,3>,
<86,12,7,4>,
<86,12,7,5>,
<86,12,7,8>,
<86,12,7,9>,
<87,13,8,1>,
<87,13,8,5>,
<87,13,8,6>,
<87,13,8,7>,
<87,13,8,8>,
<87,13,8,9>,
<87,14,8,1>,
<87,14,8,5>,
<87,14,8,6>,
<87,14,8,7>,
<87,14,8,8>,
<87,14,8,9>,
<88,15,1,2>,
<88,15,1,3>,
<88,15,1,8>,
<88,15,1,9>,
<89,1,9,1>,
<89,1,9,2>,
<89,1,9,3>,
<89,1,9,4>,
<89,1,9,5>,
<89,1,9,6>,
<89,1,9,7>,
<89,1,9,8>,
<89,2,9,1>,
<89,2,9,2>,
<89,2,9,3>,
<89,2,9,4>,
<89,2,9,5>,
<89,2,9,6>,
<89,2,9,7>,
<89,2,9,8>,
<90,3,8,2>,
<90,3,8,3>,
<90,3,8,4>,
<90,3,8,5>,
<90,3,8,8>,
<90,3,8,9>,
<90,4,8,2>,
<90,4,8,3>,
<90,4,8,4>,
<90,4,8,5>,
<90,4,8,8>,
<90,4,8,9>,
<93,9,9,1>,
<93,9,9,2>,
<93,9,9,6>,
<93,9,9,8>,
<93,9,9,9>,
<93,10,9,1>,
<93,10,9,2>,
<93,10,9,6>,
<93,10,9,8>,
<93,10,9,9>,
<95,13,2,1>,
<95,13,2,5>,
<95,13,2,6>,
<95,13,2,7>,
<95,13,2,8>,
<95,13,2,9>,
<95,14,2,1>,
<95,14,2,5>,
<95,14,2,6>,
<95,14,2,7>,
<95,14,2,8>,
<95,14,2,9>,
<97,1,5,1>,
<97,1,5,2>,
<97,1,5,3>,
<97,1,5,4>,
<97,1,5,5>,
<97,1,5,6>,
<97,1,5,7>,
<97,1,5,8>,
<97,2,5,1>,
<97,2,5,2>,
<97,2,5,3>,
<97,2,5,4>,
<97,2,5,5>,
<97,2,5,6>,
<97,2,5,7>,
<97,2,5,8>,
<98,3,10,2>,
<98,3,10,3>,
<98,3,10,4>,
<98,3,10,5>,
<98,3,10,8>,
<98,3,10,9>,
<98,4,10,2>,
<98,4,10,3>,
<98,4,10,4>,
<98,4,10,5>,
<98,4,10,8>,
<98,4,10,9>,
<99,5,5,1>,
<99,5,5,2>,
<99,5,5,3>,
<99,5,5,9>,
<99,6,5,1>,
<99,6,5,2>,
<99,6,5,3>,
<99,6,5,9>,
<100,7,6,8>,
<100,7,6,9>,
<100,8,6,8>,
<100,8,6,9>,
<101,9,6,1>,
<101,9,6,2>,
<101,9,6,6>,
<101,9,6,8>,
<101,9,6,9>,
<101,10,6,1>,
<101,10,6,2>,
<101,10,6,6>,
<101,10,6,8>,
<101,10,6,9>,
<102,11,7,2>,
<102,11,7,3>,
<102,11,7,4>,
<102,11,7,5>,
<102,11,7,8>,
<102,11,7,9>,
<102,12,7,2>,
<102,12,7,3>,
<102,12,7,4>,
<102,12,7,5>,
<102,12,7,8>,
<102,12,7,9>,
<103,13,1,1>,
<103,13,1,5>,
<103,13,1,6>,
<103,13,1,7>,
<103,13,1,8>,
<103,13,1,9>,
<103,14,1,1>,
<103,14,1,5>,
<103,14,1,6>,
<103,14,1,7>,
<103,14,1,8>,
<103,14,1,9>,
<104,15,9,2>,
<104,15,9,3>,
<104,15,9,8>,
<104,15,9,9>,
<105,1,5,1>,
<105,1,5,2>,
<105,1,5,3>,
<105,1,5,4>,
<105,1,5,5>,
<105,1,5,6>,
<105,1,5,7>,
<105,1,5,8>,
<105,2,5,1>,
<105,2,5,2>,
<105,2,5,3>,
<105,2,5,4>,
<105,2,5,5>,
<105,2,5,6>,
<105,2,5,7>,
<105,2,5,8>,
<112,15,4,2>,
<112,15,4,3>,
<112,15,4,8>,
<112,15,4,9>,
<113,1,4,1>,
<113,1,4,2>,
<113,1,4,3>,
<113,1,4,4>,
<113,1,4,5>,
<113,1,4,6>,
<113,1,4,7>,
<113,1,4,8>,
<113,2,4,1>,
<113,2,4,2>,
<113,2,4,3>,
<113,2,4,4>,
<113,2,4,5>,
<113,2,4,6>,
<113,2,4,7>,
<113,2,4,8>,
<114,3,7,2>,
<114,3,7,3>,
<114,3,7,4>,
<114,3,7,5>,
<114,3,7,8>,
<114,3,7,9>,
<114,4,7,2>,
<114,4,7,3>,
<114,4,7,4>,
<114,4,7,5>,
<114,4,7,8>,
<114,4,7,9>,
<115,5,2,1>,
<115,5,2,2>,
<115,5,2,3>,
<115,5,2,9>,
<115,6,2,1>,
<115,6,2,2>,
<115,6,2,3>,
<115,6,2,9>,
<116,7,6,8>,
<116,7,6,9>,
<116,8,6,8>,
<116,8,6,9>,
<117,9,5,1>,
<117,9,5,2>,
<117,9,5,6>,
<117,9,5,8>,
<117,9,5,9>,
<117,10,5,1>,
<117,10,5,2>,
<117,10,5,6>,
<117,10,5,8>,
<117,10,5,9>,
<118,11,1,2>,
<118,11,1,3>,
<118,11,1,4>,
<118,11,1,5>,
<118,11,1,8>,
<118,11,1,9>,
<118,12,1,2>,
<118,12,1,3>,
<118,12,1,4>,
<118,12,1,5>,
<118,12,1,8>,
<118,12,1,9>,
<119,13,10,1>,
<119,13,10,5>,
<119,13,10,6>,
<119,13,10,7>,
<119,13,10,8>,
<119,13,10,9>,
<119,14,10,1>,
<119,14,10,5>,
<119,14,10,6>,
<119,14,10,7>,
<119,14,10,8>,
<119,14,10,9>,
<120,15,5,2>,
<120,15,5,3>,
<120,15,5,8>,
<120,15,5,9>,
<121,1,7,1>,
<121,1,7,2>,
<121,1,7,3>,
<121,1,7,4>,
<121,1,7,5>,
<121,1,7,6>,
<121,1,7,7>,
<121,1,7,8>,
<121,2,7,1>,
<121,2,7,2>,
<121,2,7,3>,
<121,2,7,4>,
<121,2,7,5>,
<121,2,7,6>,
<121,2,7,7>,
<121,2,7,8>,
<122,3,10,2>,
<122,3,10,3>,
<122,3,10,4>,
<122,3,10,5>,
<122,3,10,8>,
<122,3,10,9>,
<122,4,10,2>,
<122,4,10,3>,
<122,4,10,4>,
<122,4,10,5>,
<122,4,10,8>,
<122,4,10,9>,
<123,5,10,1>,
<123,5,10,2>,
<123,5,10,3>,
<123,5,10,9>,
<123,6,10,1>,
<123,6,10,2>,
<123,6,10,3>,
<123,6,10,9>,
<124,7,8,8>,
<124,7,8,9>,
<124,8,8,8>,
<124,8,8,9>,
<126,11,3,2>,
<126,11,3,3>,
<126,11,3,4>,
<126,11,3,5>,
<126,11,3,8>,
<126,11,3,9>,
<126,12,3,2>,
<126,12,3,3>,
<126,12,3,4>,
<126,12,3,5>,
<126,12,3,8>,
<126,12,3,9>,
<128,15,1,2>,
<128,15,1,3>,
<128,15,1,8>,
<128,15,1,9>,
<129,1,6,1>,
<129,1,6,2>,
<129,1,6,3>,
<129,1,6,4>,
<129,1,6,5>,
<129,1,6,6>,
<129,1,6,7>,
<129,1,6,8>,
<129,2,6,1>,
<129,2,6,2>,
<129,2,6,3>,
<129,2,6,4>,
<129,2,6,5>,
<129,2,6,6>,
<129,2,6,7>,
<129,2,6,8>,
<130,3,1,2>,
<130,3,1,3>,
<130,3,1,4>,
<130,3,1,5>,
<130,3,1,8>,
<130,3,1,9>,
<130,4,1,2>,
<130,4,1,3>,
<130,4,1,4>,
<130,4,1,5>,
<130,4,1,8>,
<130,4,1,9>,
<131,5,1,1>,
<131,5,1,2>,
<131,5,1,3>,
<131,5,1,9>,
<131,6,1,1>,
<131,6,1,2>,
<131,6,1,3>,
<131,6,1,9>,
<132,7,3,8>,
<132,7,3,9>,
<132,8,3,8>,
<132,8,3,9>,
<133,9,7,1>,
<133,9,7,2>,
<133,9,7,6>,
<133,9,7,8>,
<133,9,7,9>,
<133,10,7,1>,
<133,10,7,2>,
<133,10,7,6>,
<133,10,7,8>,
<133,10,7,9>,
<134,11,1,2>,
<134,11,1,3>,
<134,11,1,4>,
<134,11,1,5>,
<134,11,1,8>,
<134,11,1,9>,
<134,12,1,2>,
<134,12,1,3>,
<134,12,1,4>,
<134,12,1,5>,
<134,12,1,8>,
<134,12,1,9>,
<135,13,7,1>,
<135,13,7,5>,
<135,13,7,6>,
<135,13,7,7>,
<135,13,7,8>,
<135,13,7,9>,
<135,14,7,1>,
<135,14,7,5>,
<135,14,7,6>,
<135,14,7,7>,
<135,14,7,8>,
<135,14,7,9>,
<136,15,9,2>,
<136,15,9,3>,
<136,15,9,8>,
<136,15,9,9>,
<137,1,7,1>,
<137,1,7,2>,
<137,1,7,3>,
<137,1,7,4>,
<137,1,7,5>,
<137,1,7,6>,
<137,1,7,7>,
<137,1,7,8>,
<137,2,7,1>,
<137,2,7,2>,
<137,2,7,3>,
<137,2,7,4>,
<137,2,7,5>,
<137,2,7,6>,
<137,2,7,7>,
<137,2,7,8>,
<138,3,6,2>,
<138,3,6,3>,
<138,3,6,4>,
<138,3,6,5>,
<138,3,6,8>,
<138,3,6,9>,
<138,4,6,2>,
<138,4,6,3>,
<138,4,6,4>,
<138,4,6,5>,
<138,4,6,8>,
<138,4,6,9>,
<140,7,1,8>,
<140,7,1,9>,
<140,8,1,8>,
<140,8,1,9>,
<142,11,10,2>,
<142,11,10,3>,
<142,11,10,4>,
<142,11,10,5>,
<142,11,10,8>,
<142,11,10,9>,
<142,12,10,2>,
<142,12,10,3>,
<142,12,10,4>,
<142,12,10,5>,
<142,12,10,8>,
<142,12,10,9>,
<144,15,9,2>,
<144,15,9,3>,
<144,15,9,8>,
<144,15,9,9>,
<145,1,5,1>,
<145,1,5,2>,
<145,1,5,3>,
<145,1,5,4>,
<145,1,5,5>,
<145,1,5,6>,
<145,1,5,7>,
<145,1,5,8>,
<145,2,5,1>,
<145,2,5,2>,
<145,2,5,3>,
<145,2,5,4>,
<145,2,5,5>,
<145,2,5,6>,
<145,2,5,7>,
<145,2,5,8>,
<146,3,5,2>,
<146,3,5,3>,
<146,3,5,4>,
<146,3,5,5>,
<146,3,5,8>,
<146,3,5,9>,
<146,4,5,2>,
<146,4,5,3>,
<146,4,5,4>,
<146,4,5,5>,
<146,4,5,8>,
<146,4,5,9>,
<147,5,3,1>,
<147,5,3,2>,
<147,5,3,3>,
<147,5,3,9>,
<147,6,3,1>,
<147,6,3,2>,
<147,6,3,3>,
<147,6,3,9>,
<148,7,8,8>,
<148,7,8,9>,
<148,8,8,8>,
<148,8,8,9>,
<149,9,8,1>,
<149,9,8,2>,
<149,9,8,6>,
<149,9,8,8>,
<149,9,8,9>,
<149,10,8,1>,
<149,10,8,2>,
<149,10,8,6>,
<149,10,8,8>,
<149,10,8,9>,
<150,11,5,2>,
<150,11,5,3>,
<150,11,5,4>,
<150,11,5,5>,
<150,11,5,8>,
<150,11,5,9>,
<150,12,5,2>,
<150,12,5,3>,
<150,12,5,4>,
<150,12,5,5>,
<150,12,5,8>,
<150,12,5,9>,
<151,13,7,1>,
<151,13,7,5>,
<151,13,7,6>,
<151,13,7,7>,
<151,13,7,8>,
<151,13,7,9>,
<151,14,7,1>,
<151,14,7,5>,
<151,14,7,6>,
<151,14,7,7>,
<151,14,7,8>,
<151,14,7,9>,
<152,15,8,2>,
<152,15,8,3>,
<152,15,8,8>,
<152,15,8,9>,
<153,1,3,1>,
<153,1,3,2>,
<153,1,3,3>,
<153,1,3,4>,
<153,1,3,5>,
<153,1,3,6>,
<153,1,3,7>,
<153,1,3,8>,
<153,2,3,1>,
<153,2,3,2>,
<153,2,3,3>,
<153,2,3,4>,
<153,2,3,5>,
<153,2,3,6>,
<153,2,3,7>,
<153,2,3,8>,
<154,3,2,2>,
<154,3,2,3>,
<154,3,2,4>,
<154,3,2,5>,
<154,3,2,8>,
<154,3,2,9>,
<154,4,2,2>,
<154,4,2,3>,
<154,4,2,4>,
<154,4,2,5>,
<154,4,2,8>,
<154,4,2,9>,
<155,5,6,1>,
<155,5,6,2>,
<155,5,6,3>,
<155,5,6,9>,
<155,6,6,1>,
<155,6,6,2>,
<155,6,6,3>,
<155,6,6,9>,
<156,7,3,8>,
<156,7,3,9>,
<156,8,3,8>,
<156,8,3,9>,
<158,11,9,2>,
<158,11,9,3>,
<158,11,9,4>,
<158,11,9,5>,
<158,11,9,8>,
<158,11,9,9>,
<158,12,9,2>,
<158,12,9,3>,
<158,12,9,4>,
<158,12,9,5>,
<158,12,9,8>,
<158,12,9,9>,
<159,13,8,1>,
<159,13,8,5>,
<159,13,8,6>,
<159,13,8,7>,
<159,13,8,8>,
<159,13,8,9>,
<159,14,8,1>,
<159,14,8,5>,
<159,14,8,6>,
<159,14,8,7>,
<159,14,8,8>,
<159,14,8,9>,
<160,15,8,2>,
<160,15,8,3>,
<160,15,8,8>,
<160,15,8,9>,
<161,1,3,1>,
<161,1,3,2>,
<161,1,3,3>,
<161,1,3,4>,
<161,1,3,5>,
<161,1,3,6>,
<161,1,3,7>,
<161,1,3,8>,
<161,2,3,1>,
<161,2,3,2>,
<161,2,3,3>,
<161,2,3,4>,
<161,2,3,5>,
<161,2,3,6>,
<161,2,3,7>,
<161,2,3,8>,
<162,3,3,2>,
<162,3,3,3>,
<162,3,3,4>,
<162,3,3,5>,
<162,3,3,8>,
<162,3,3,9>,
<162,4,3,2>,
<162,4,3,3>,
<162,4,3,4>,
<162,4,3,5>,
<162,4,3,8>,
<162,4,3,9>,
<163,5,8,1>,
<163,5,8,2>,
<163,5,8,3>,
<163,5,8,9>,
<163,6,8,1>,
<163,6,8,2>,
<163,6,8,3>,
<163,6,8,9>,
<164,7,8,8>,
<164,7,8,9>,
<164,8,8,8>,
<164,8,8,9>,
<165,9,10,1>,
<165,9,10,2>,
<165,9,10,6>,
<165,9,10,8>,
<165,9,10,9>,
<165,10,10,1>,
<165,10,10,2>,
<165,10,10,6>,
<165,10,10,8>,
<165,10,10,9>,
<166,11,4,2>,
<166,11,4,3>,
<166,11,4,4>,
<166,11,4,5>,
<166,11,4,8>,
<166,11,4,9>,
<166,12,4,2>,
<166,12,4,3>,
<166,12,4,4>,
<166,12,4,5>,
<166,12,4,8>,
<166,12,4,9>,
<167,13,4,1>,
<167,13,4,5>,
<167,13,4,6>,
<167,13,4,7>,
<167,13,4,8>,
<167,13,4,9>,
<167,14,4,1>,
<167,14,4,5>,
<167,14,4,6>,
<167,14,4,7>,
<167,14,4,8>,
<167,14,4,9>,
<168,15,3,2>,
<168,15,3,3>,
<168,15,3,8>,
<168,15,3,9>,
<169,1,8,1>,
<169,1,8,2>,
<169,1,8,3>,
<169,1,8,4>,
<169,1,8,5>,
<169,1,8,6>,
<169,1,8,7>,
<169,1,8,8>,
<169,2,8,1>,
<169,2,8,2>,
<169,2,8,3>,
<169,2,8,4>,
<169,2,8,5>,
<169,2,8,6>,
<169,2,8,7>,
<169,2,8,8>,
<174,11,9,2>,
<174,11,9,3>,
<174,11,9,4>,
<174,11,9,5>,
<174,11,9,8>,
<174,11,9,9>,
<174,12,9,2>,
<174,12,9,3>,
<174,12,9,4>,
<174,12,9,5>,
<174,12,9,8>,
<174,12,9,9>,
<176,15,10,2>,
<176,15,10,3>,
<176,15,10,8>,
<176,15,10,9>,
<177,1,9,1>,
<177,1,9,2>,
<177,1,9,3>,
<177,1,9,4>,
<177,1,9,5>,
<177,1,9,6>,
<177,1,9,7>,
<177,1,9,8>,
<177,2,9,1>,
<177,2,9,2>,
<177,2,9,3>,
<177,2,9,4>,
<177,2,9,5>,
<177,2,9,6>,
<177,2,9,7>,
<177,2,9,8>,
<178,3,10,2>,
<178,3,10,3>,
<178,3,10,4>,
<178,3,10,5>,
<178,3,10,8>,
<178,3,10,9>,
<178,4,10,2>,
<178,4,10,3>,
<178,4,10,4>,
<178,4,10,5>,
<178,4,10,8>,
<178,4,10,9>,
<179,5,7,1>,
<179,5,7,2>,
<179,5,7,3>,
<179,5,7,9>,
<179,6,7,1>,
<179,6,7,2>,
<179,6,7,3>,
<179,6,7,9>,
<180,7,10,8>,
<180,7,10,9>,
<180,8,10,8>,
<180,8,10,9>,
<181,9,6,1>,
<181,9,6,2>,
<181,9,6,6>,
<181,9,6,8>,
<181,9,6,9>,
<181,10,6,1>,
<181,10,6,2>,
<181,10,6,6>,
<181,10,6,8>,
<181,10,6,9>,
<182,11,10,2>,
<182,11,10,3>,
<182,11,10,4>,
<182,11,10,5>,
<182,11,10,8>,
<182,11,10,9>,
<182,12,10,2>,
<182,12,10,3>,
<182,12,10,4>,
<182,12,10,5>,
<182,12,10,8>,
<182,12,10,9>,
<183,13,5,1>,
<183,13,5,5>,
<183,13,5,6>,
<183,13,5,7>,
<183,13,5,8>,
<183,13,5,9>,
<183,14,5,1>,
<183,14,5,5>,
<183,14,5,6>,
<183,14,5,7>,
<183,14,5,8>,
<183,14,5,9>,
<184,15,1,2>,
<184,15,1,3>,
<184,15,1,8>,
<184,15,1,9>,
<185,1,2,1>,
<185,1,2,2>,
<185,1,2,3>,
<185,1,2,4>,
<185,1,2,5>,
<185,1,2,6>,
<185,1,2,7>,
<185,1,2,8>,
<185,2,2,1>,
<185,2,2,2>,
<185,2,2,3>,
<185,2,2,4>,
<185,2,2,5>,
<185,2,2,6>,
<185,2,2,7>,
<185,2,2,8>,
<186,3,8,2>,
<186,3,8,3>,
<186,3,8,4>,
<186,3,8,5>,
<186,3,8,8>,
<186,3,8,9>,
<186,4,8,2>,
<186,4,8,3>,
<186,4,8,4>,
<186,4,8,5>,
<186,4,8,8>,
<186,4,8,9>,
<187,5,8,1>,
<187,5,8,2>,
<187,5,8,3>,
<187,5,8,9>,
<187,6,8,1>,
<187,6,8,2>,
<187,6,8,3>,
<187,6,8,9>,
<188,7,8,8>,
<188,7,8,9>,
<188,8,8,8>,
<188,8,8,9>,
<190,11,2,2>,
<190,11,2,3>,
<190,11,2,4>,
<190,11,2,5>,
<190,11,2,8>,
<190,11,2,9>,
<190,12,2,2>,
<190,12,2,3>,
<190,12,2,4>,
<190,12,2,5>,
<190,12,2,8>,
<190,12,2,9>,
<191,13,4,1>,
<191,13,4,5>,
<191,13,4,6>,
<191,13,4,7>,
<191,13,4,8>,
<191,13,4,9>,
<191,14,4,1>,
<191,14,4,5>,
<191,14,4,6>,
<191,14,4,7>,
<191,14,4,8>,
<191,14,4,9>,
<193,1,2,1>,
<193,1,2,2>,
<193,1,2,3>,
<193,1,2,4>,
<193,1,2,5>,
<193,1,2,6>,
<193,1,2,7>,
<193,1,2,8>,
<193,2,2,1>,
<193,2,2,2>,
<193,2,2,3>,
<193,2,2,4>,
<193,2,2,5>,
<193,2,2,6>,
<193,2,2,7>,
<193,2,2,8>,
<194,3,1,2>,
<194,3,1,3>,
<194,3,1,4>,
<194,3,1,5>,
<194,3,1,8>,
<194,3,1,9>,
<194,4,1,2>,
<194,4,1,3>,
<194,4,1,4>,
<194,4,1,5>,
<194,4,1,8>,
<194,4,1,9>,
<195,5,7,1>,
<195,5,7,2>,
<195,5,7,3>,
<195,5,7,9>,
<195,6,7,1>,
<195,6,7,2>,
<195,6,7,3>,
<195,6,7,9>,
<196,7,5,8>,
<196,7,5,9>,
<196,8,5,8>,
<196,8,5,9>,
<197,9,2,1>,
<197,9,2,2>,
<197,9,2,6>,
<197,9,2,8>,
<197,9,2,9>,
<197,10,2,1>,
<197,10,2,2>,
<197,10,2,6>,
<197,10,2,8>,
<197,10,2,9>,
<198,11,8,2>,
<198,11,8,3>,
<198,11,8,4>,
<198,11,8,5>,
<198,11,8,8>,
<198,11,8,9>,
<198,12,8,2>,
<198,12,8,3>,
<198,12,8,4>,
<198,12,8,5>,
<198,12,8,8>,
<198,12,8,9>,
<199,13,4,1>,
<199,13,4,5>,
<199,13,4,6>,
<199,13,4,7>,
<199,13,4,8>,
<199,13,4,9>,
<199,14,4,1>,
<199,14,4,5>,
<199,14,4,6>,
<199,14,4,7>,
<199,14,4,8>,
<199,14,4,9>,
<200,15,4,2>,
<200,15,4,3>,
<200,15,4,8>,
<200,15,4,9>,
<201,1,9,1>,
<201,1,9,2>,
<201,1,9,3>,
<201,1,9,4>,
<201,1,9,5>,
<201,1,9,6>,
<201,1,9,7>,
<201,1,9,8>,
<201,2,9,1>,
<201,2,9,2>,
<201,2,9,3>,
<201,2,9,4>,
<201,2,9,5>,
<201,2,9,6>,
<201,2,9,7>,
<201,2,9,8>,
<202,3,7,2>,
<202,3,7,3>,
<202,3,7,4>,
<202,3,7,5>,
<202,3,7,8>,
<202,3,7,9>,
<202,4,7,2>,
<202,4,7,3>,
<202,4,7,4>,
<202,4,7,5>,
<202,4,7,8>,
<202,4,7,9>,
<203,5,10,1>,
<203,5,10,2>,
<203,5,10,3>,
<203,5,10,9>,
<203,6,10,1>,
<203,6,10,2>,
<203,6,10,3>,
<203,6,10,9>,
<206,11,7,2>,
<206,11,7,3>,
<206,11,7,4>,
<206,11,7,5>,
<206,11,7,8>,
<206,11,7,9>,
<206,12,7,2>,
<206,12,7,3>,
<206,12,7,4>,
<206,12,7,5>,
<206,12,7,8>,
<206,12,7,9>,
<207,13,7,1>,
<207,13,7,5>,
<207,13,7,6>,
<207,13,7,7>,
<207,13,7,8>,
<207,13,7,9>,
<207,14,7,1>,
<207,14,7,5>,
<207,14,7,6>,
<207,14,7,7>,
<207,14,7,8>,
<207,14,7,9>,
<208,15,7,2>,
<208,15,7,3>,
<208,15,7,8>,
<208,15,7,9>,
<209,1,5,1>,
<209,1,5,2>,
<209,1,5,3>,
<209,1,5,4>,
<209,1,5,5>,
<209,1,5,6>,
<209,1,5,7>,
<209,1,5,8>,
<209,2,5,1>,
<209,2,5,2>,
<209,2,5,3>,
<209,2,5,4>,
<209,2,5,5>,
<209,2,5,6>,
<209,2,5,7>,
<209,2,5,8>,
<210,3,5,2>,
<210,3,5,3>,
<210,3,5,4>,
<210,3,5,5>,
<210,3,5,8>,
<210,3,5,9>,
<210,4,5,2>,
<210,4,5,3>,
<210,4,5,4>,
<210,4,5,5>,
<210,4,5,8>,
<210,4,5,9>,
<211,5,6,1>,
<211,5,6,2>,
<211,5,6,3>,
<211,5,6,9>,
<211,6,6,1>,
<211,6,6,2>,
<211,6,6,3>,
<211,6,6,9>,
<212,7,8,8>,
<212,7,8,9>,
<212,8,8,8>,
<212,8,8,9>,
<213,9,6,1>,
<213,9,6,2>,
<213,9,6,6>,
<213,9,6,8>,
<213,9,6,9>,
<213,10,6,1>,
<213,10,6,2>,
<213,10,6,6>,
<213,10,6,8>,
<213,10,6,9>,
<214,11,7,2>,
<214,11,7,3>,
<214,11,7,4>,
<214,11,7,5>,
<214,11,7,8>,
<214,11,7,9>,
<214,12,7,2>,
<214,12,7,3>,
<214,12,7,4>,
<214,12,7,5>,
<214,12,7,8>,
<214,12,7,9>,
<215,13,8,1>,
<215,13,8,5>,
<215,13,8,6>,
<215,13,8,7>,
<215,13,8,8>,
<215,13,8,9>,
<215,14,8,1>,
<215,14,8,5>,
<215,14,8,6>,
<215,14,8,7>,
<215,14,8,8>,
<215,14,8,9>,
<216,15,3,2>,
<216,15,3,3>,
<216,15,3,8>,
<216,15,3,9>,
<217,1,3,1>,
<217,1,3,2>,
<217,1,3,3>,
<217,1,3,4>,
<217,1,3,5>,
<217,1,3,6>,
<217,1,3,7>,
<217,1,3,8>,
<217,2,3,1>,
<217,2,3,2>,
<217,2,3,3>,
<217,2,3,4>,
<217,2,3,5>,
<217,2,3,6>,
<217,2,3,7>,
<217,2,3,8>,
<219,5,10,1>,
<219,5,10,2>,
<219,5,10,3>,
<219,5,10,9>,
<219,6,10,1>,
<219,6,10,2>,
<219,6,10,3>,
<219,6,10,9>,
<224,15,8,2>,
<224,15,8,3>,
<224,15,8,8>,
<224,15,8,9>,
<225,1,5,1>,
<225,1,5,2>,
<225,1,5,3>,
<225,1,5,4>,
<225,1,5,5>,
<225,1,5,6>,
<225,1,5,7>,
<225,1,5,8>,
<225,2,5,1>,
<225,2,5,2>,
<225,2,5,3>,
<225,2,5,4>,
<225,2,5,5>,
<225,2,5,6>,
<225,2,5,7>,
<225,2,5,8>,
<226,3,9,2>,
<226,3,9,3>,
<226,3,9,4>,
<226,3,9,5>,
<226,3,9,8>,
<226,3,9,9>,
<226,4,9,2>,
<226,4,9,3>,
<226,4,9,4>,
<226,4,9,5>,
<226,4,9,8>,
<226,4,9,9>,
<227,5,3,1>,
<227,5,3,2>,
<227,5,3,3>,
<227,5,3,9>,
<227,6,3,1>,
<227,6,3,2>,
<227,6,3,3>,
<227,6,3,9>,
<228,7,7,8>,
<228,7,7,9>,
<228,8,7,8>,
<228,8,7,9>,
<229,9,5,1>,
<229,9,5,2>,
<229,9,5,6>,
<229,9,5,8>,
<229,9,5,9>,
<229,10,5,1>,
<229,10,5,2>,
<229,10,5,6>,
<229,10,5,8>,
<229,10,5,9>,
<230,11,1,2>,
<230,11,1,3>,
<230,11,1,4>,
<230,11,1,5>,
<230,11,1,8>,
<230,11,1,9>,
<230,12,1,2>,
<230,12,1,3>,
<230,12,1,4>,
<230,12,1,5>,
<230,12,1,8>,
<230,12,1,9>,
<231,13,7,1>,
<231,13,7,5>,
<231,13,7,6>,
<231,13,7,7>,
<231,13,7,8>,
<231,13,7,9>,
<231,14,7,1>,
<231,14,7,5>,
<231,14,7,6>,
<231,14,7,7>,
<231,14,7,8>,
<231,14,7,9>,
<232,15,8,2>,
<232,15,8,3>,
<232,15,8,8>,
<232,15,8,9>,
<233,1,4,1>,
<233,1,4,2>,
<233,1,4,3>,
<233,1,4,4>,
<233,1,4,5>,
<233,1,4,6>,
<233,1,4,7>,
<233,1,4,8>,
<233,2,4,1>,
<233,2,4,2>,
<233,2,4,3>,
<233,2,4,4>,
<233,2,4,5>,
<233,2,4,6>,
<233,2,4,7>,
<233,2,4,8>,
<238,11,2,2>,
<238,11,2,3>,
<238,11,2,4>,
<238,11,2,5>,
<238,11,2,8>,
<238,11,2,9>,
<238,12,2,2>,
<238,12,2,3>,
<238,12,2,4>,
<238,12,2,5>,
<238,12,2,8>,
<238,12,2,9>,
<239,13,10,1>,
<239,13,10,5>,
<239,13,10,6>,
<239,13,10,7>,
<239,13,10,8>,
<239,13,10,9>,
<239,14,10,1>,
<239,14,10,5>,
<239,14,10,6>,
<239,14,10,7>,
<239,14,10,8>,
<239,14,10,9>,
<240,15,8,2>,
<240,15,8,3>,
<240,15,8,8>,
<240,15,8,9>,
<241,1,5,1>,
<241,1,5,2>,
<241,1,5,3>,
<241,1,5,4>,
<241,1,5,5>,
<241,1,5,6>,
<241,1,5,7>,
<241,1,5,8>,
<241,2,5,1>,
<241,2,5,2>,
<241,2,5,3>,
<241,2,5,4>,
<241,2,5,5>,
<241,2,5,6>,
<241,2,5,7>,
<241,2,5,8>,
<242,3,5,2>,
<242,3,5,3>,
<242,3,5,4>,
<242,3,5,5>,
<242,3,5,8>,
<242,3,5,9>,
<242,4,5,2>,
<242,4,5,3>,
<242,4,5,4>,
<242,4,5,5>,
<242,4,5,8>,
<242,4,5,9>,
<243,5,6,1>,
<243,5,6,2>,
<243,5,6,3>,
<243,5,6,9>,
<243,6,6,1>,
<243,6,6,2>,
<243,6,6,3>,
<243,6,6,9>,
<244,7,4,8>,
<244,7,4,9>,
<244,8,4,8>,
<244,8,4,9>,
<245,9,4,1>,
<245,9,4,2>,
<245,9,4,6>,
<245,9,4,8>,
<245,9,4,9>,
<245,10,4,1>,
<245,10,4,2>,
<245,10,4,6>,
<245,10,4,8>,
<245,10,4,9>,
<246,11,6,2>,
<246,11,6,3>,
<246,11,6,4>,
<246,11,6,5>,
<246,11,6,8>,
<246,11,6,9>,
<246,12,6,2>,
<246,12,6,3>,
<246,12,6,4>,
<246,12,6,5>,
<246,12,6,8>,
<246,12,6,9>,
<247,13,5,1>,
<247,13,5,5>,
<247,13,5,6>,
<247,13,5,7>,
<247,13,5,8>,
<247,13,5,9>,
<247,14,5,1>,
<247,14,5,5>,
<247,14,5,6>,
<247,14,5,7>,
<247,14,5,8>,
<247,14,5,9>,
<248,15,1,2>,
<248,15,1,3>,
<248,15,1,8>,
<248,15,1,9>,
<249,1,4,1>,
<249,1,4,2>,
<249,1,4,3>,
<249,1,4,4>,
<249,1,4,5>,
<249,1,4,6>,
<249,1,4,7>,
<249,1,4,8>,
<249,2,4,1>,
<249,2,4,2>,
<249,2,4,3>,
<249,2,4,4>,
<249,2,4,5>,
<249,2,4,6>,
<249,2,4,7>,
<249,2,4,8>,
<250,3,8,2>,
<250,3,8,3>,
<250,3,8,4>,
<250,3,8,5>,
<250,3,8,8>,
<250,3,8,9>,
<250,4,8,2>,
<250,4,8,3>,
<250,4,8,4>,
<250,4,8,5>,
<250,4,8,8>,
<250,4,8,9>,
<251,5,6,1>,
<251,5,6,2>,
<251,5,6,3>,
<251,5,6,9>,
<251,6,6,1>,
<251,6,6,2>,
<251,6,6,3>,
<251,6,6,9>,
<253,9,8,1>,
<253,9,8,2>,
<253,9,8,6>,
<253,9,8,8>,
<253,9,8,9>,
<253,10,8,1>,
<253,10,8,2>,
<253,10,8,6>,
<253,10,8,8>,
<253,10,8,9>,
<254,11,5,2>,
<254,11,5,3>,
<254,11,5,4>,
<254,11,5,5>,
<254,11,5,8>,
<254,11,5,9>,
<254,12,5,2>,
<254,12,5,3>,
<254,12,5,4>,
<254,12,5,5>,
<254,12,5,8>,
<254,12,5,9>,
<255,13,7,1>,
<255,13,7,5>,
<255,13,7,6>,
<255,13,7,7>,
<255,13,7,8>,
<255,13,7,9>,
<255,14,7,1>,
<255,14,7,5>,
<255,14,7,6>,
<255,14,7,7>,
<255,14,7,8>,
<255,14,7,9>,
<256,15,6,2>,
<256,15,6,3>,
<256,15,6,8>,
<256,15,6,9>,
<257,1,5,1>,
<257,1,5,2>,
<257,1,5,3>,
<257,1,5,4>,
<257,1,5,5>,
<257,1,5,6>,
<257,1,5,7>,
<257,1,5,8>,
<257,2,5,1>,
<257,2,5,2>,
<257,2,5,3>,
<257,2,5,4>,
<257,2,5,5>,
<257,2,5,6>,
<257,2,5,7>,
<257,2,5,8>,
<258,3,4,2>,
<258,3,4,3>,
<258,3,4,4>,
<258,3,4,5>,
<258,3,4,8>,
<258,3,4,9>,
<258,4,4,2>,
<258,4,4,3>,
<258,4,4,4>,
<258,4,4,5>,
<258,4,4,8>,
<258,4,4,9>,
<259,5,9,1>,
<259,5,9,2>,
<259,5,9,3>,
<259,5,9,9>,
<259,6,9,1>,
<259,6,9,2>,
<259,6,9,3>,
<259,6,9,9>,
<260,7,10,8>,
<260,7,10,9>,
<260,8,10,8>,
<260,8,10,9>,
<261,9,10,1>,
<261,9,10,2>,
<261,9,10,6>,
<261,9,10,8>,
<261,9,10,9>,
<261,10,10,1>,
<261,10,10,2>,
<261,10,10,6>,
<261,10,10,8>,
<261,10,10,9>,
<262,11,5,2>,
<262,11,5,3>,
<262,11,5,4>,
<262,11,5,5>,
<262,11,5,8>,
<262,11,5,9>,
<262,12,5,2>,
<262,12,5,3>,
<262,12,5,4>,
<262,12,5,5>,
<262,12,5,8>,
<262,12,5,9>,
<263,13,5,1>,
<263,13,5,5>,
<263,13,5,6>,
<263,13,5,7>,
<263,13,5,8>,
<263,13,5,9>,
<263,14,5,1>,
<263,14,5,5>,
<263,14,5,6>,
<263,14,5,7>,
<263,14,5,8>,
<263,14,5,9>,
<264,15,3,2>,
<264,15,3,3>,
<264,15,3,8>,
<264,15,3,9>,
<265,1,6,1>,
<265,1,6,2>,
<265,1,6,3>,
<265,1,6,4>,
<265,1,6,5>,
<265,1,6,6>,
<265,1,6,7>,
<265,1,6,8>,
<265,2,6,1>,
<265,2,6,2>,
<265,2,6,3>,
<265,2,6,4>,
<265,2,6,5>,
<265,2,6,6>,
<265,2,6,7>,
<265,2,6,8>,
<266,3,2,2>,
<266,3,2,3>,
<266,3,2,4>,
<266,3,2,5>,
<266,3,2,8>,
<266,3,2,9>,
<266,4,2,2>,
<266,4,2,3>,
<266,4,2,4>,
<266,4,2,5>,
<266,4,2,8>,
<266,4,2,9>,
<272,15,8,2>,
<272,15,8,3>,
<272,15,8,8>,
<272,15,8,9>,
<273,1,7,1>,
<273,1,7,2>,
<273,1,7,3>,
<273,1,7,4>,
<273,1,7,5>,
<273,1,7,6>,
<273,1,7,7>,
<273,1,7,8>,
<273,2,7,1>,
<273,2,7,2>,
<273,2,7,3>,
<273,2,7,4>,
<273,2,7,5>,
<273,2,7,6>,
<273,2,7,7>,
<273,2,7,8>,
<274,3,9,2>,
<274,3,9,3>,
<274,3,9,4>,
<274,3,9,5>,
<274,3,9,8>,
<274,3,9,9>,
<274,4,9,2>,
<274,4,9,3>,
<274,4,9,4>,
<274,4,9,5>,
<274,4,9,8>,
<274,4,9,9>,
<275,5,4,1>,
<275,5,4,2>,
<275,5,4,3>,
<275,5,4,9>,
<275,6,4,1>,
<275,6,4,2>,
<275,6,4,3>,
<275,6,4,9>,
<276,7,2,8>,
<276,7,2,9>,
<276,8,2,8>,
<276,8,2,9>,
<277,9,4,1>,
<277,9,4,2>,
<277,9,4,6>,
<277,9,4,8>,
<277,9,4,9>,
<277,10,4,1>,
<277,10,4,2>,
<277,10,4,6>,
<277,10,4,8>,
<277,10,4,9>,
<278,11,4,2>,
<278,11,4,3>,
<278,11,4,4>,
<278,11,4,5>,
<278,11,4,8>,
<278,11,4,9>,
<278,12,4,2>,
<278,12,4,3>,
<278,12,4,4>,
<278,12,4,5>,
<278,12,4,8>,
<278,12,4,9>,
<279,13,3,1>,
<279,13,3,5>,
<279,13,3,6>,
<279,13,3,7>,
<279,13,3,8>,
<279,13,3,9>,
<279,14,3,1>,
<279,14,3,5>,
<279,14,3,6>,
<279,14,3,7>,
<279,14,3,8>,
<279,14,3,9>,
<280,15,5,2>,
<280,15,5,3>,
<280,15,5,8>,
<280,15,5,9>,
<281,1,1,1>,
<281,1,1,2>,
<281,1,1,3>,
<281,1,1,4>,
<281,1,1,5>,
<281,1,1,6>,
<281,1,1,7>,
<281,1,1,8>,
<281,2,1,1>,
<281,2,1,2>,
<281,2,1,3>,
<281,2,1,4>,
<281,2,1,5>,
<281,2,1,6>,
<281,2,1,7>,
<281,2,1,8>,
<283,5,4,1>,
<283,5,4,2>,
<283,5,4,3>,
<283,5,4,9>,
<283,6,4,1>,
<283,6,4,2>,
<283,6,4,3>,
<283,6,4,9>,
<284,7,9,8>,
<284,7,9,9>,
<284,8,9,8>,
<284,8,9,9>,
<285,9,5,1>,
<285,9,5,2>,
<285,9,5,6>,
<285,9,5,8>,
<285,9,5,9>,
<285,10,5,1>,
<285,10,5,2>,
<285,10,5,6>,
<285,10,5,8>,
<285,10,5,9>,
<286,11,9,2>,
<286,11,9,3>,
<286,11,9,4>,
<286,11,9,5>,
<286,11,9,8>,
<286,11,9,9>,
<286,12,9,2>,
<286,12,9,3>,
<286,12,9,4>,
<286,12,9,5>,
<286,12,9,8>,
<286,12,9,9>,
<287,13,10,1>,
<287,13,10,5>,
<287,13,10,6>,
<287,13,10,7>,
<287,13,10,8>,
<287,13,10,9>,
<287,14,10,1>,
<287,14,10,5>,
<287,14,10,6>,
<287,14,10,7>,
<287,14,10,8>,
<287,14,10,9>,
<288,15,5,2>,
<288,15,5,3>,
<288,15,5,8>,
<288,15,5,9>,
<289,1,3,1>,
<289,1,3,2>,
<289,1,3,3>,
<289,1,3,4>,
<289,1,3,5>,
<289,1,3,6>,
<289,1,3,7>,
<289,1,3,8>,
<289,2,3,1>,
<289,2,3,2>,
<289,2,3,3>,
<289,2,3,4>,
<289,2,3,5>,
<289,2,3,6>,
<289,2,3,7>,
<289,2,3,8>,
<290,3,3,2>,
<290,3,3,3>,
<290,3,3,4>,
<290,3,3,5>,
<290,3,3,8>,
<290,3,3,9>,
<290,4,3,2>,
<290,4,3,3>,
<290,4,3,4>,
<290,4,3,5>,
<290,4,3,8>,
<290,4,3,9>,
<291,5,1,1>,
<291,5,1,2>,
<291,5,1,3>,
<291,5,1,9>,
<291,6,1,1>,
<291,6,1,2>,
<291,6,1,3>,
<291,6,1,9>,
<292,7,7,8>,
<292,7,7,9>,
<292,8,7,8>,
<292,8,7,9>,
<293,9,6,1>,
<293,9,6,2>,
<293,9,6,6>,
<293,9,6,8>,
<293,9,6,9>,
<293,10,6,1>,
<293,10,6,2>,
<293,10,6,6>,
<293,10,6,8>,
<293,10,6,9>,
<294,11,10,2>,
<294,11,10,3>,
<294,11,10,4>,
<294,11,10,5>,
<294,11,10,8>,
<294,11,10,9>,
<294,12,10,2>,
<294,12,10,3>,
<294,12,10,4>,
<294,12,10,5>,
<294,12,10,8>,
<294,12,10,9>,
<295,13,7,1>,
<295,13,7,5>,
<295,13,7,6>,
<295,13,7,7>,
<295,13,7,8>,
<295,13,7,9>,
<295,14,7,1>,
<295,14,7,5>,
<295,14,7,6>,
<295,14,7,7>,
<295,14,7,8>,
<295,14,7,9>,
<296,15,1,2>,
<296,15,1,3>,
<296,15,1,8>,
<296,15,1,9>,
<297,1,2,1>,
<297,1,2,2>,
<297,1,2,3>,
<297,1,2,4>,
<297,1,2,5>,
<297,1,2,6>,
<297,1,2,7>,
<297,1,2,8>,
<297,2,2,1>,
<297,2,2,2>,
<297,2,2,3>,
<297,2,2,4>,
<297,2,2,5>,
<297,2,2,6>,
<297,2,2,7>,
<297,2,2,8>,
<298,3,7,2>,
<298,3,7,3>,
<298,3,7,4>,
<298,3,7,5>,
<298,3,7,8>,
<298,3,7,9>,
<298,4,7,2>,
<298,4,7,3>,
<298,4,7,4>,
<298,4,7,5>,
<298,4,7,8>,
<298,4,7,9>,
<300,7,1,8>,
<300,7,1,9>,
<300,8,1,8>,
<300,8,1,9>,
<303,13,7,1>,
<303,13,7,5>,
<303,13,7,6>,
<303,13,7,7>,
<303,13,7,8>,
<303,13,7,9>,
<303,14,7,1>,
<303,14,7,5>,
<303,14,7,6>,
<303,14,7,7>,
<303,14,7,8>,
<303,14,7,9>,
<305,1,4,1>,
<305,1,4,2>,
<305,1,4,3>,
<305,1,4,4>,
<305,1,4,5>,
<305,1,4,6>,
<305,1,4,7>,
<305,1,4,8>,
<305,2,4,1>,
<305,2,4,2>,
<305,2,4,3>,
<305,2,4,4>,
<305,2,4,5>,
<305,2,4,6>,
<305,2,4,7>,
<305,2,4,8>,
<306,3,4,2>,
<306,3,4,3>,
<306,3,4,4>,
<306,3,4,5>,
<306,3,4,8>,
<306,3,4,9>,
<306,4,4,2>,
<306,4,4,3>,
<306,4,4,4>,
<306,4,4,5>,
<306,4,4,8>,
<306,4,4,9>,
<307,5,8,1>,
<307,5,8,2>,
<307,5,8,3>,
<307,5,8,9>,
<307,6,8,1>,
<307,6,8,2>,
<307,6,8,3>,
<307,6,8,9>,
<308,7,4,8>,
<308,7,4,9>,
<308,8,4,8>,
<308,8,4,9>,
<309,9,4,1>,
<309,9,4,2>,
<309,9,4,6>,
<309,9,4,8>,
<309,9,4,9>,
<309,10,4,1>,
<309,10,4,2>,
<309,10,4,6>,
<309,10,4,8>,
<309,10,4,9>,
<310,11,4,2>,
<310,11,4,3>,
<310,11,4,4>,
<310,11,4,5>,
<310,11,4,8>,
<310,11,4,9>,
<310,12,4,2>,
<310,12,4,3>,
<310,12,4,4>,
<310,12,4,5>,
<310,12,4,8>,
<310,12,4,9>,
<311,13,4,1>,
<311,13,4,5>,
<311,13,4,6>,
<311,13,4,7>,
<311,13,4,8>,
<311,13,4,9>,
<311,14,4,1>,
<311,14,4,5>,
<311,14,4,6>,
<311,14,4,7>,
<311,14,4,8>,
<311,14,4,9>,
<312,15,10,2>,
<312,15,10,3>,
<312,15,10,8>,
<312,15,10,9>,
<313,1,3,1>,
<313,1,3,2>,
<313,1,3,3>,
<313,1,3,4>,
<313,1,3,5>,
<313,1,3,6>,
<313,1,3,7>,
<313,1,3,8>,
<313,2,3,1>,
<313,2,3,2>,
<313,2,3,3>,
<313,2,3,4>,
<313,2,3,5>,
<313,2,3,6>,
<313,2,3,7>,
<313,2,3,8>,
<315,5,9,1>,
<315,5,9,2>,
<315,5,9,3>,
<315,5,9,9>,
<315,6,9,1>,
<315,6,9,2>,
<315,6,9,3>,
<315,6,9,9>,
<317,9,6,1>,
<317,9,6,2>,
<317,9,6,6>,
<317,9,6,8>,
<317,9,6,9>,
<317,10,6,1>,
<317,10,6,2>,
<317,10,6,6>,
<317,10,6,8>,
<317,10,6,9>,
<319,13,2,1>,
<319,13,2,5>,
<319,13,2,6>,
<319,13,2,7>,
<319,13,2,8>,
<319,13,2,9>,
<319,14,2,1>,
<319,14,2,5>,
<319,14,2,6>,
<319,14,2,7>,
<319,14,2,8>,
<319,14,2,9>,
<320,15,5,2>,
<320,15,5,3>,
<320,15,5,8>,
<320,15,5,9>
 };
